
Gurobi 11.0.1 (win64) logging started Tue May 14 18:25:30 2024

Set parameter LogFile to value "output/solver_log23.txt"
Gurobi Optimizer version 11.0.1 build v11.0.1rc0 (win64 - Windows 11.0 (22631.2))

CPU model: 11th Gen Intel(R) Core(TM) i7-1165G7 @ 2.80GHz, instruction set [SSE2|AVX|AVX2|AVX512]
Thread count: 4 physical cores, 8 logical processors, using up to 8 threads

Optimize a model with 1028 rows, 171 columns and 19285 nonzeros
Model fingerprint: 0x6287a467
Variable types: 88 continuous, 83 integer (83 binary)
Coefficient statistics:
  Matrix range     [4e-01, 1e+05]
  Objective range  [1e+00, 1e+02]
  Bounds range     [1e+00, 1e+00]
  RHS range        [1e-02, 1e+05]

User MIP start produced solution with objective 38085.5 (0.00s)
User MIP start produced solution with objective 39296.3 (0.00s)
User MIP start produced solution with objective 39296.3 (0.00s)
Loaded user MIP start with objective 39296.3

Presolve removed 64 rows and 66 columns
Presolve time: 0.02s
Presolved: 964 rows, 105 columns, 18812 nonzeros
Variable types: 79 continuous, 26 integer (25 binary)

Root relaxation: objective 3.982758e+04, 194 iterations, 0.01 seconds (0.03 work units)

    Nodes    |    Current Node    |     Objective Bounds      |     Work
 Expl Unexpl |  Obj  Depth IntInf | Incumbent    BestBd   Gap | It/Node Time

     0     0 39827.5824    0    4 39296.3240 39827.5824  1.35%     -    0s
     0     0          -    0      39296.3240 39299.1056  0.01%     -    0s

Explored 1 nodes (199 simplex iterations) in 0.06 seconds (0.10 work units)
Thread count was 8 (of 8 available processors)

Solution count 3: 39296.3 39296.3 38085.5 

Optimal solution found (tolerance 1.00e-04)
Best objective 3.929632397969e+04, best bound 3.929910555964e+04, gap 0.0071%
